p cnf 10 30
-8 -6 3 0
10 -3 -9 0
-7 1 -1 0
-6 6 -1 0
9 -3 -2 0
9 2 4 0
8 1 10 0
-6 10 5 0
8 -6 6 0
-7 3 1 0
-6 4 -1 0
4 -2 -10 0
-8 1 -6 0
-8 1 9 0
-8 6 -10 0
-8 -6 7 0
3 4 7 0
8 -7 -5 0
-5 -4 -3 0
-8 -7 5 0
-8 6 7 0
-8 -3 -1 0
9 2 -5 0
4 5 -1 0
-8 8 2 0
-7 2 -3 0
9 2 -1 0
-8 9 4 0
5 -3 -9 0
1 2 4 0
